p cnf 18 32
1 0
2 3 0
2 -4 0
1 -5 0
1 -6 0
7 -8 0
7 -4 0
9 -7 0
9 -10 0
11 -12 0
11 -13 0
5 -11 0
5 -14 0
3 -13 0
15 -8 0
15 -4 0
16 -12 0
17 -8 0
18 -12 0
-2 -3 0
12 13 -11 0
8 4 -7 0
7 10 -9 0
11 14 -5 0
5 6 -1 0
12 -16 -18 0
8 -15 -17 0
4 -2 -15 0
13 -8 -3 0
13 -4 -3 0
13 -3 -10 0
8 4 10 -13 0